78 80
14 29 1
19 22 1
34 11 1
8 4 1
7 20 1
5 22 1
20 15 1
15 21 1
31 35 1
18 29 1
7 24 1
6 15 1
34 10 1
19 28 1
1 32 1
1 27 1
15 35 1
15 16 1
22 12 1
31 9 1
14 2 1
27 34 1
31 20 1
33 25 1
17 23 1
16 33 1
1 15 1
27 14 1
20 13 2
23 8 1
21 7 1
9 30 1
30 2 1
35 2 1
17 14 1
22 33 1
33 34 1
10 35 1
33 32 1
15 33 1
23 23 1
29 32 2
18 34 1
9 35 1
4 2 1
2 5 1
9 4 1
11 8 1
3 34 1
28 11 1
2 15 1
24 31 1
32 20 1
12 24 1
29 29 1
21 30 1
7 35 1
19 29 1
29 8 1
22 14 1
28 32 1
21 23 1
21 29 1
22 1 1
33 4 1
4 12 1
35 8 1
30 23 1
7 31 1
33 16 1
11 9 1
30 18 1
16 27 1
12 32 1
2 6 1
18 4 1
32 22 1
5 19 1
40 40 
40 40 
40 40 
40 40 
40 40 
40 40 
40 40 
40 40 
40 40 
40 40 
40 40 
40 40 
40 40 
40 40 
40 40 
40 40 
40 40 
40 40 
40 40 
40 40 
40 40 
40 40 
40 40 
40 40 
40 40 
40 40 
40 40 
40 40 
40 40 
40 40 
40 40 
40 40 
40 40 
40 40 
40 40 
40 40 
40 40 
40 40 
40 40 
40 40 
40 40 
40 40 
40 40 
40 40 
40 40 
40 40 
40 40 
40 40 
40 40 
40 40 
40 40 
40 40 
40 40 
40 40 
40 40 
40 40 
40 40 
40 40 
40 40 
40 40 
40 40 
40 40 
40 40 
40 40 
40 40 
40 40 
40 40 
40 40 
40 40 
40 40 
40 40 
40 40 
40 40 
40 40 
40 40 
40 40 
40 40 
40 40 
40 40 
40 40 
